c exercice 4 theorie 2
c
p cnf 16 13
1 2 0
-2 -3 0
-2 4 -5 0
3 5 6 0
7 -6 -8 0
4 8 9 0
10 -9 11 0
8 -11 -12 0
12 -13 0
12 14 0
-6 12 15 0
-14 13 -16 0
-14 -15 16 0
c
c voici le resultat obtenu par glucose
c s SATISFIABLE
c v 1 -2 -3 4 5 -6 -7 -8 -9 10 -11 12 -13 -14 -15 -16 0
c en effet ce modèle satisfait la théorie
